5 5
3 88 0 83 4 77 1 16 2 40
4 27 3 70 0 42 2 57 1 10
1 38 0 8 2 18 3 96 4 17
2 58 0 66 1 44 3 84 4 74
0 9 2 48 1 39 4 89 3 89
-1
0 3 4 5
0 1 2 4 5
0 2 4 5
0 3 5
0 1 3 4 5
-2
251 351 360
27 136 295 263
70 176 184
248 433
9 149 205 424

427 9
20 11 16 1 7
10 22 17 3 9
21 15 12 8 4
0 6 13 18 24
5 23 14 2 19
